(set-info :smt-lib-version 2.6)
(set-logic QF_UFLRA)
(set-info :source |
MathSat group

|)
(set-info :category "random")
(set-info :status unsat)
(declare-fun x0 () Real)
(declare-fun x1 () Real)
(declare-fun x2 () Real)
(declare-fun x3 () Real)
(declare-fun x4 () Real)
(declare-fun x5 () Real)
(declare-fun x6 () Real)
(declare-fun x7 () Real)
(declare-fun x8 () Real)
(declare-fun x9 () Real)
(declare-fun x10 () Real)
(declare-fun x11 () Real)
(declare-fun x12 () Real)
(declare-fun x13 () Real)
(declare-fun x14 () Real)
(declare-fun x15 () Real)
(declare-fun x16 () Real)
(declare-fun x17 () Real)
(declare-fun x18 () Real)
(declare-fun x19 () Real)
(declare-fun x20 () Real)
(declare-fun x21 () Real)
(declare-fun x22 () Real)
(declare-fun x23 () Real)
(declare-fun x24 () Real)
(declare-fun x25 () Real)
(declare-fun x26 () Real)
(declare-fun x27 () Real)
(declare-fun x28 () Real)
(declare-fun x29 () Real)
(declare-fun f0_1 (Real) Real)
(declare-fun f0_2 (Real Real) Real)
(declare-fun f0_3 (Real Real Real) Real)
(declare-fun f0_4 (Real Real Real Real) Real)
(declare-fun P0 () Bool)
(declare-fun P1 () Bool)
(declare-fun P2 () Bool)
(declare-fun P3 () Bool)
(declare-fun P4 () Bool)
(declare-fun P5 () Bool)
(declare-fun P6 () Bool)
(declare-fun P7 () Bool)
(declare-fun P8 () Bool)
(declare-fun P9 () Bool)
(declare-fun P10 () Bool)
(declare-fun P11 () Bool)
(declare-fun P12 () Bool)
(declare-fun P13 () Bool)
(declare-fun P14 () Bool)
(declare-fun P15 () Bool)
(declare-fun P16 () Bool)
(declare-fun P17 () Bool)
(declare-fun P18 () Bool)
(declare-fun P19 () Bool)
(declare-fun P20 () Bool)
(declare-fun P21 () Bool)
(declare-fun P22 () Bool)
(declare-fun P23 () Bool)
(declare-fun P24 () Bool)
(declare-fun P25 () Bool)
(declare-fun P26 () Bool)
(declare-fun P27 () Bool)
(declare-fun P28 () Bool)
(declare-fun P29 () Bool)
(assert (let ((?v_46 (distinct (+ (- (* 38 x20) (* 3 x20)) (* 23 x11)) 23)) (?v_33 (= (+ (- (* 11 x28) (* 31 x22)) (* 4 x14)) 40)) (?v_81 (<= (+ (- (* 35 x25) (* 5 x22)) (* 18 x15)) 3)) (?v_7 (<= (- (+ (* 39 x6) (* 30 x21)) (* 31 x15)) 21)) (?v_79 (distinct (+ (- (* 42 x29) (* 17 x12)) (* 22 x11)) 24)) (?v_66 (* 40 x14)) (?v_95 (< (- (+ (* 8 x16) (* 4 x2)) (* 34 x2)) 40)) (?v_1 (= (f0_2 x13 x12) (f0_2 x25 x15))) (?v_2 (f0_1 x12))) (let ((?v_70 (= ?v_2 x20)) (?v_25 (f0_1 x7))) (let ((?v_8 (= ?v_25 x12)) (?v_26 (f0_1 x2))) (let ((?v_103 (= ?v_25 ?v_26)) (?v_17 (distinct (f0_2 x23 x25) x23)) (?v_24 (distinct (f0_2 x9 x4) x27)) (?v_20 (= x15 (f0_2 x16 x21))) (?v_104 (distinct x19 (f0_2 x13 x0))) (?v_114 (= (f0_1 x26) (f0_2 x25 x14))) (?v_3 (distinct (f0_2 x14 x22) x8)) (?v_78 (= (f0_1 x21) ?v_26)) (?v_47 (distinct (f0_2 x8 x27) x20)) (?v_31 (distinct (f0_1 x22) (f0_2 x1 x4))) (?v_5 (= x17 (f0_2 x18 x23))) (?v_23 (distinct x2 (f0_2 x26 x8))) (?v_67 (distinct (f0_1 x8) x0)) (?v_37 (distinct x16 x1)) (?v_4 (distinct x12 (f0_2 x6 x24))) (?v_52 (= (f0_2 x17 x27) x7)) (?v_0 (distinct (f0_2 x12 x25) (f0_1 x18))) (?v_90 (= (f0_2 x24 x7) (f0_1 x11))) (?v_18 (= (f0_1 x5) ?v_2)) (?v_84 (distinct x29 x1)) (?v_71 (distinct x19 x10)) (?v_134 (distinct (f0_1 x17) x4)) (?v_35 (distinct (f0_2 x25 x6) x9)) (?v_11 (distinct x29 x12)) (?v_12 (distinct x5 x28)) (?v_82 (= x7 x22)) (?v_34 (= (f0_1 x13) (f0_1 x23))) (?v_60 (not ?v_70)) (?v_22 (not P3))) (let ((?v_112 (not ?v_84)) (?v_50 (not ?v_82)) (?v_41 (not ?v_8)) (?v_14 (not ?v_0)) (?v_93 (not ?v_3)) (?v_49 (not ?v_18)) (?v_29 (not P26)) (?v_100 (not ?v_34)) (?v_151 (not ?v_20)) (?v_76 (not ?v_4)) (?v_135 (not ?v_24)) (?v_28 (not P11)) (?v_83 (not P20)) (?v_120 (not ?v_11)) (?v_85 (not ?v_35)) (?v_108 (not P23)) (?v_65 (not ?v_78)) (?v_16 (not P24)) (?v_48 (not ?v_33)) (?v_68 (not P17)) (?v_21 (not P29)) (?v_130 (not ?v_52)) (?v_62 (not P16)) (?v_39 (not P27)) (?v_44 (not P15)) (?v_89 (not P9)) (?v_86 (not ?v_67)) (?v_75 (not ?v_103)) (?v_128 (not P19)) (?v_97 (not P6)) (?v_94 (not ?v_37)) (?v_42 (not P21)) (?v_115 (not ?v_134)) (?v_57 (not P5)) (?v_45 (not P8)) (?v_141 (not P13)) (?v_58 (not ?v_46)) (?v_109 (not ?v_79)) (?v_140 (not ?v_23)) (?v_73 (not P7)) (?v_74 (not ?v_12)) (?v_142 (not P10)) (?v_110 (not P25)) (?v_101 (not P12)) (?v_69 (not ?v_104)) (?v_150 (not ?v_114)) (?v_116 (not P28)) (?v_91 (not ?v_81)) (?v_99 (not ?v_71)) (?v_105 (not ?v_90)) (?v_138 (not ?v_95)) (?v_107 (not ?v_5))) (let ((?v_156 (or ?v_108 ?v_101)) (?v_146 (not ?v_31)) (?v_132 (not ?v_7)) (?v_148 (not P22)) (?v_118 (not P18)) (?v_133 (not ?v_17)) (?v_125 (not P4)) (?v_127 (not P2)) (?v_145 (not P14)) (?v_147 (not P0)) (?v_155 (not ?v_47)) (?v_143 (not ?v_1)) (?v_149 (not P1)) (?v_154 (or ?v_110 ?v_37)) (?v_152 (or ?v_42 ?v_11)) (?v_9 (<= (+ (* 6 x19) (* 40 x26) (* 2 x23)) 5))) (let ((?v_15 (not ?v_9)) (?v_40 (<= (+ (* 6 x4) (* 37 x28) (* 37 x4)) 5))) (let ((?v_10 (not ?v_40)) (?v_77 (distinct (- (- x20 (* 27 x23)) (* 13 x2)) 9))) (let ((?v_136 (not ?v_77)) (?v_6 (<= (- (- (* (- 31) x27) (* 5 x16)) (* 4 x10)) 38)) (?v_144 (< (* (- 40) x13) (- 32)))) (let ((?v_19 (not ?v_144)) (?v_30 (<= (+ (* (- 11) x19) (* 23 x1) (* 20 x9)) 30))) (let ((?v_56 (not ?v_30)) (?v_13 (<= (+ (* (- 18) x25) (* 15 x7) (* 23 x18)) (- 33))) (?v_32 (= (+ (* (- 35) x3) (* 16 x27) (* 29 x24)) 26)) (?v_92 (<= (- (- (* (- 4) x4) (* 25 x1)) (* 34 x11)) (- 12)))) (let ((?v_51 (not ?v_92)) (?v_43 (< (- (* 9 x23) ?v_66) (- 34))) (?v_123 (not ?v_6)) (?v_117 (<= (+ (* (- 26) x6) (* 4 x20)) (- 42)))) (let ((?v_61 (not ?v_117)) (?v_87 (<= (+ (- (* (- 20) x6) (* 15 x29)) (* 5 x26)) (- 34)))) (let ((?v_36 (not ?v_87)) (?v_27 (= (- (+ (* (- 7) x5) (* 13 x15)) (* 42 x15)) 35)) (?v_54 (distinct (- (* 38 x27) (* 24 x14)) (- 23)))) (let ((?v_88 (not ?v_54)) (?v_129 (not ?v_27)) (?v_72 (< (+ (* (- 17) x14) (* 7 x29) (* 34 x21)) (- 22))) (?v_113 (not ?v_32)) (?v_38 (< (+ (- (* (- 23) x21) (* 32 x21)) (* 31 x21)) 39))) (let ((?v_98 (not ?v_38)) (?v_122 (<= (- (- (* (- 28) x8) (* 41 x17)) (* 25 x24)) 19))) (let ((?v_53 (not ?v_122)) (?v_59 (<= (- (+ (* 28 x13) (* 28 x11)) (* 17 x22)) (- 26)))) (let ((?v_137 (not ?v_59)) (?v_55 (<= (- (+ (* 3 x19) (* 12 x24)) (* 4 x25)) (- 33))) (?v_64 (<= (+ (- (* (- 3) x6) (* 27 x20)) x18) 42)) (?v_131 (<= (- (+ (* (- 25) x14) (* 2 x3)) (* 16 x6)) 8))) (let ((?v_102 (not ?v_131)) (?v_126 (not ?v_55)) (?v_106 (<= (+ (- (* 23 x26) (* 33 x1)) (* 21 x17)) (- 26)))) (let ((?v_63 (not ?v_106)) (?v_121 (not ?v_64)) (?v_80 (<= (- (- (* (- 13) x22) ?v_66) (* 14 x5)) (- 2))) (?v_124 (not ?v_43)) (?v_119 (not ?v_72))) (let ((?v_96 (not ?v_80)) (?v_111 (<= (+ (- (* (- 30) x3) (* 35 x6)) (* 13 x11)) (- 14)))) (let ((?v_139 (not ?v_111)) (?v_157 (or ?v_22 ?v_119)) (?v_153 (or ?v_148 ?v_123))) (and (and (and (and (and (and (and (and (and (and (and (and (and (and (and (and (and (and (and (and (and (and (and (and (and (and (and (and (and (and (and (and (and (and (and (and (and (and (and (and (and (and (and (and (and (and (and (and (and (and (and (and (and (and (and (and (and (and (and (and (and (and (and (and (and (and (and (and (and (and (and (and (and (and (and (and (and (and (and (and (and (and (and (and (and (and (and (and (and (and (and (and (and (and (and (and (and (and (and (and (and (and (and (and (and (and (and (and (and (and (and (and (and (and (and (and (and (and (and (and (and (and (and (and (and (and (and (and (and (and (and (and (and (and (and (and (and (and (and (and (and (and (and (and (and (and (and (and (and (and (and (and (and (and (and (and (and (and (and (and (and (and (and (and (and (and (and (and (and (and (and (and (and (and (and (and (and (and (and (and (and (and (and (and (and (and (and (and (and (and (and (and (and (and (and (and (and (and (and (and (and (and (and (and (and (and (and (and (and (and (and (and (and (and (and (and (and (and (and (and (and (and (and (and (and (and (and (and (and (and (and (and (and (and (and (and (and (and (and (and (and (and (and (and (and (and (and (and (and (and (and (and (and (and (and (and (and (and (and (and (and (and (and (and (and (and (and (and (and (and (and (and (and (and (and (and (and (and (and (and (and (and (and (and (and (and (and (and (and (and (and (and (and (and (and (and (and (and (and (and (and (and (and (and (and (and (and (and (and (and (and (and (and (and (and (and (and (and (and (and (and (and (and (and (and (and (and (and (and (and (and (and (and (and (and (and (and (and (and (and (and (and (and (and (and (and (and (and (and (and (and (and (and (and (and (and (and (and (and (and (and (and (and (and (and (and (and (and (and (and (and (and (and (and (and (and (and (and (and (and (and (and (and (and (and (and (and (and (and (and (and (and (and (and (and (and (and (and (and (and (and (and (and (and (and (and (and (and (and (and (and (and (and (and (and (and (and (and (and (and (and (and (and (and (and (and (and (and (and (and (and (and (and (and (and (and (and (and (and (and (and (and (and (and (and (and (and (and (and (or (or ?v_6 ?v_17) P27) (or (or ?v_9 ?v_60) ?v_4)) (or (or ?v_22 P7) ?v_112)) (or (or P17 P9) ?v_19)) (or (or P1 ?v_0) ?v_50)) (or (or ?v_41 ?v_11) P6)) (or (or P11 P18) ?v_56)) (or (or ?v_1 ?v_13) ?v_12)) (or (or ?v_14 P11) ?v_93)) (or (or ?v_32 ?v_51) ?v_1)) (or (or P12 P16) ?v_49)) (or (or ?v_43 ?v_7) ?v_29)) (or (or ?v_100 ?v_90) ?v_3)) (or (or ?v_151 P21) ?v_76)) (or (or ?v_81 ?v_71) P4)) (or (or ?v_5 ?v_5) ?v_135)) (or (or P18 ?v_123) ?v_61)) (or (or ?v_28 ?v_83) ?v_7)) (or (or ?v_8 ?v_15) P11)) (or (or ?v_10 ?v_10) ?v_120)) (or (or ?v_12 P26) P9)) (or (or ?v_85 ?v_108) ?v_13)) (or (or ?v_65 ?v_14) ?v_16)) (or (or ?v_15 P15) ?v_48)) (or (or P15 ?v_16) ?v_17)) (or (or ?v_18 ?v_31) ?v_68)) (or (or ?v_17 ?v_21) P24)) (or (or ?v_23 ?v_36) ?v_19)) (or (or ?v_47 ?v_27) ?v_130)) (or (or P18 ?v_88) ?v_5)) (or (or ?v_62 ?v_20) P22)) (or (or P8 ?v_39) ?v_44)) (or (or P4 ?v_21) ?v_22)) (or (or ?v_89 ?v_1) ?v_23)) (or (or P7 P22) ?v_24)) (or (or ?v_86 ?v_75) ?v_129)) (or (or ?v_19 ?v_128) ?v_97)) (or (or ?v_94 ?v_28) ?v_29)) (or (or P11 ?v_29) ?v_72)) (or (or ?v_46 ?v_30) ?v_31)) (or (or ?v_113 ?v_42) ?v_115)) (or (or ?v_98 ?v_33) ?v_57)) (or (or ?v_34 P28) ?v_35)) (or (or ?v_36 ?v_37) ?v_53)) (or (or ?v_137 ?v_38) ?v_95)) (or (or ?v_45 ?v_24) ?v_16)) (or (or ?v_37 ?v_11) ?v_10)) (or (or ?v_35 ?v_39) ?v_18)) (or (or P5 ?v_40) ?v_41)) (or (or ?v_42 ?v_43) P1)) (or (or ?v_55 ?v_141) ?v_44)) (or (or P19 ?v_45) P20)) (or (or ?v_58 ?v_47) ?v_48)) (or (or ?v_49 P11) ?v_19)) (or (or ?v_50 ?v_51) ?v_109)) (or (or P27 ?v_8) ?v_52)) (or (or ?v_22 ?v_53) ?v_20)) (or (or ?v_140 P5) ?v_54)) (or (or ?v_73 ?v_5) ?v_64)) (or (or ?v_102 ?v_126) ?v_5)) (or (or ?v_56 ?v_27) ?v_57)) (or (or ?v_52 P13) ?v_41)) (or (or ?v_74 ?v_47) ?v_142)) (or (or ?v_58 ?v_27) ?v_59)) (or (or ?v_43 ?v_110) ?v_31)) (or (or ?v_60 ?v_63) ?v_52)) (or (or ?v_59 ?v_52) ?v_17)) (or (or ?v_101 ?v_11) ?v_28)) (or (or ?v_20 ?v_57) ?v_55)) (or (or ?v_57 ?v_61) ?v_62)) (or (or ?v_69 ?v_63) ?v_121)) (or (or ?v_65 ?v_37) ?v_18)) (or (or ?v_80 ?v_77) ?v_14)) (or (or P0 ?v_13) ?v_67)) (or (or ?v_59 P26) P14)) (or (or ?v_68 ?v_69) ?v_70)) (or (or ?v_71 ?v_67) ?v_124)) (or (or ?v_119 ?v_0) ?v_73)) (or (or ?v_74 ?v_150) ?v_55)) (or (or ?v_43 ?v_75) ?v_28)) (or (or ?v_76 ?v_63) ?v_77)) (or (or ?v_28 P11) ?v_56)) (or (or ?v_44 ?v_78) P22)) (or (or P12 ?v_10) ?v_116)) (or (or ?v_34 ?v_79) ?v_96)) (or (or ?v_81 ?v_82) ?v_31)) (or (or P15 P12) P3)) (or (or P2 P6) ?v_91)) (or (or ?v_47 ?v_99) ?v_83)) (or (or ?v_84 ?v_4) ?v_77)) (or (or ?v_52 P16) ?v_85)) (or (or ?v_60 ?v_3) P2)) (or (or ?v_9 ?v_86) ?v_87)) (or (or ?v_20 ?v_88) ?v_34)) (or (or ?v_13 ?v_10) ?v_85)) (or (or ?v_89 ?v_32) ?v_30)) (or (or ?v_32 ?v_105) ?v_91)) (or (or ?v_92 ?v_15) ?v_78)) (or (or ?v_79 ?v_93) ?v_94)) (or (or ?v_138 ?v_96) ?v_97)) (or (or ?v_85 ?v_98) ?v_57)) (or (or ?v_47 ?v_59) ?v_7)) (or (or ?v_15 ?v_42) P0)) (or (or ?v_99 ?v_77) P4)) (or (or ?v_97 ?v_12) ?v_100)) (or (or ?v_101 ?v_107) P0)) (or (or ?v_84 ?v_61) ?v_102)) (or (or P7 P10) P22)) (or (or ?v_101 ?v_103) ?v_104)) (or (or ?v_4 ?v_105) ?v_72)) (or (or ?v_106 P28) P20)) (or (or ?v_21 ?v_75) ?v_62)) (or (or P5 ?v_107) P11)) (or (or ?v_77 ?v_72) ?v_44)) (or ?v_156 ?v_111)) (or (or ?v_47 ?v_21) P25)) (or (or ?v_17 ?v_87) ?v_69)) (or (or ?v_146 ?v_136) ?v_89)) (or (or ?v_132 ?v_96) ?v_107)) (or (or ?v_11 ?v_90) ?v_34)) (or (or ?v_148 ?v_46) P6)) (or (or ?v_74 ?v_109) ?v_35)) (or (or P3 ?v_41) ?v_34)) (or (or ?v_110 ?v_8) ?v_90)) (or (or P9 P11) ?v_30)) (or (or P7 ?v_5) ?v_139)) (or (or ?v_43 ?v_111) ?v_82)) (or (or ?v_89 ?v_106) ?v_112)) (or (or ?v_113 ?v_56) ?v_114)) (or (or ?v_115 ?v_19) P20)) (or (or ?v_118 ?v_61) ?v_104)) (or (or ?v_71 P23) ?v_11)) (or (or ?v_54 ?v_116) ?v_133)) (or (or ?v_125 ?v_108) ?v_11)) (or (or ?v_51 ?v_117) ?v_118)) (or (or ?v_82 ?v_64) ?v_70)) (or (or ?v_76 ?v_127) ?v_67)) (or (or ?v_75 ?v_55) ?v_23)) (or (or ?v_119 ?v_60) ?v_113)) (or (or ?v_54 P10) ?v_57)) (or (or ?v_91 ?v_88) ?v_94)) (or (or P5 ?v_19) ?v_120)) (or (or ?v_67 ?v_65) P22)) (or (or ?v_23 ?v_45) ?v_60)) (or (or ?v_97 ?v_38) ?v_23)) (or (or ?v_35 ?v_60) P4)) (or (or ?v_69 ?v_60) ?v_87)) (or (or ?v_111 ?v_6) ?v_96)) (or (or ?v_0 ?v_82) ?v_97)) (or (or ?v_121 ?v_145) ?v_122)) (or (or ?v_33 P3) ?v_17)) (or (or P20 ?v_123) ?v_124)) (or (or ?v_125 P29) P10)) (or (or ?v_24 ?v_35) ?v_103)) (or (or ?v_126 ?v_65) ?v_87)) (or (or ?v_39 P6) ?v_41)) (or (or ?v_118 ?v_79) ?v_78)) (or (or ?v_95 ?v_85) P26)) (or (or ?v_120 ?v_105) ?v_57)) (or (or ?v_91 ?v_19) ?v_23)) (or (or ?v_126 P19) P1)) (or (or ?v_147 ?v_70) ?v_120)) (or (or P0 ?v_11) P26)) (or (or ?v_127 ?v_126) ?v_103)) (or (or P27 ?v_53) ?v_91)) (or (or ?v_3 P12) ?v_47)) (or (or ?v_84 ?v_7) ?v_30)) (or (or ?v_36 ?v_128) ?v_31)) (or (or ?v_40 ?v_97) P24)) (or (or P18 ?v_34) ?v_64)) (or (or ?v_85 ?v_27) ?v_86)) (or (or ?v_118 ?v_39) ?v_61)) (or (or ?v_155 ?v_8) P9)) (or (or ?v_129 ?v_44) P1)) (or (or ?v_83 ?v_130) ?v_81)) (or (or ?v_19 ?v_55) ?v_48)) (or (or ?v_48 P24) ?v_131)) (or (or ?v_126 ?v_52) ?v_132)) (or (or ?v_118 ?v_106) ?v_133)) (or (or ?v_70 ?v_119) ?v_4)) (or (or ?v_41 ?v_122) ?v_73)) (or (or ?v_97 ?v_14) ?v_134)) (or (or ?v_96 P15) ?v_101)) (or (or ?v_16 ?v_8) P13)) (or (or ?v_18 ?v_81) ?v_16)) (or (or ?v_130 ?v_123) ?v_70)) (or (or P28 P7) P21)) (or (or ?v_89 ?v_143) ?v_9)) (or (or ?v_135 P22) ?v_92)) (or (or ?v_133 ?v_118) ?v_47)) (or (or ?v_30 ?v_48) ?v_31)) (or (or P27 P18) ?v_40)) (or (or ?v_94 ?v_37) ?v_70)) (or (or ?v_8 ?v_37) ?v_64)) (or (or ?v_21 ?v_136) ?v_86)) (or (or ?v_137 P29) ?v_89)) (or (or ?v_9 ?v_90) P11)) (or (or ?v_17 P14) ?v_11)) (or (or ?v_62 ?v_87) ?v_46)) (or (or ?v_149 ?v_59) P0)) (or (or ?v_68 ?v_46) ?v_72)) (or (or ?v_138 ?v_71) ?v_3)) (or (or ?v_116 ?v_139) ?v_124)) (or (or ?v_60 ?v_34) ?v_93)) (or (or ?v_40 ?v_12) P10)) (or (or ?v_24 P5) ?v_130)) (or (or P10 ?v_51) ?v_70)) (or (or ?v_62 ?v_109) ?v_17)) (or (or ?v_140 ?v_141) ?v_59)) (or (or ?v_16 P5) P10)) (or (or ?v_106 ?v_88) ?v_4)) (or (or ?v_78 ?v_76) ?v_0)) (or (or ?v_4 ?v_74) P19)) (or (or P10 ?v_142) ?v_60)) (or (or ?v_139 ?v_58) ?v_133)) (or (or ?v_16 ?v_143) ?v_33)) (or (or ?v_14 P22) ?v_124)) (or (or ?v_18 P23) ?v_7)) (or (or ?v_109 ?v_144) ?v_104)) (or ?v_157 ?v_145)) (or (or ?v_132 ?v_6) ?v_101)) (or (or ?v_88 ?v_9) ?v_11)) (or (or ?v_89 P14) ?v_107)) (or (or ?v_139 ?v_86) ?v_110)) (or (or ?v_43 ?v_128) ?v_119)) (or (or ?v_1 ?v_51) ?v_137)) (or (or ?v_44 ?v_81) ?v_4)) (or (or ?v_18 ?v_90) ?v_127)) (or (or ?v_141 ?v_60) ?v_104)) (or (or ?v_117 P6) ?v_131)) (or (or ?v_67 ?v_73) ?v_6)) (or (or ?v_111 ?v_128) P1)) (or (or P14 ?v_34) ?v_121)) (or (or ?v_115 ?v_107) ?v_52)) (or (or ?v_101 ?v_52) ?v_72)) (or (or ?v_76 ?v_13) ?v_93)) (or (or P27 ?v_137) P26)) (or (or ?v_118 ?v_146) ?v_134)) (or (or ?v_16 ?v_114) ?v_123)) (or (or ?v_147 ?v_34) P15)) (or (or ?v_98 ?v_90) ?v_140)) (or (or P12 ?v_111) ?v_145)) (or (or ?v_65 ?v_23) ?v_131)) (or (or ?v_60 ?v_57) ?v_69)) (or (or ?v_64 ?v_107) ?v_104)) (or (or ?v_32 P19) ?v_99)) (or (or ?v_67 P9) ?v_45)) (or (or ?v_43 ?v_58) ?v_80)) (or ?v_153 P9)) (or (or ?v_48 ?v_19) ?v_133)) (or (or ?v_36 ?v_146) ?v_130)) (or (or ?v_87 ?v_128) ?v_93)) (or (or ?v_55 ?v_45) ?v_72)) (or (or ?v_142 P1) ?v_11)) (or (or ?v_43 ?v_71) ?v_10)) (or (or ?v_35 ?v_13) ?v_127)) (or (or ?v_14 ?v_93) ?v_17)) (or (or ?v_149 ?v_114) ?v_96)) (or (or ?v_6 ?v_83) ?v_100)) (or (or ?v_21 ?v_73) ?v_32)) (or (or ?v_23 P27) P1)) (or (or ?v_75 ?v_69) P11)) (or (or ?v_129 P8) ?v_30)) (or (or ?v_13 ?v_58) ?v_47)) (or (or P18 ?v_114) ?v_32)) (or (or ?v_105 ?v_68) ?v_83)) (or (or ?v_41 ?v_49) ?v_83)) (or (or ?v_110 ?v_95) ?v_33)) (or (or ?v_114 ?v_45) ?v_84)) (or (or ?v_61 ?v_54) ?v_58)) (or (or P25 ?v_58) ?v_61)) (or (or ?v_88 ?v_58) ?v_147)) (or (or ?v_148 ?v_48) P26)) (or (or ?v_101 ?v_96) ?v_19)) (or (or ?v_6 ?v_133) ?v_11)) (or (or ?v_85 ?v_93) P19)) (or (or ?v_147 ?v_21) P4)) (or (or ?v_47 P8) ?v_141)) (or (or ?v_89 ?v_85) ?v_67)) (or (or ?v_76 ?v_41) P11)) (or (or ?v_123 ?v_113) ?v_16)) (or (or ?v_22 ?v_150) ?v_124)) (or (or ?v_22 ?v_34) ?v_145)) (or (or P1 ?v_8) ?v_56)) (or (or ?v_109 ?v_123) ?v_87)) (or (or ?v_148 ?v_57) ?v_112)) (or (or ?v_139 ?v_45) ?v_135)) (or (or ?v_142 ?v_53) ?v_72)) (or ?v_154 ?v_139)) (or (or P10 ?v_31) ?v_92)) (or (or ?v_77 ?v_121) P19)) (or (or ?v_16 ?v_118) ?v_120)) (or (or ?v_87 ?v_83) ?v_12)) (or (or ?v_112 ?v_149) ?v_71)) (or (or ?v_112 P11) ?v_107)) (or (or ?v_151 ?v_27) ?v_84)) (or (or ?v_136 ?v_113) P11)) (or (or ?v_88 ?v_29) ?v_135)) (or (or ?v_94 P15) P22)) (or (or ?v_109 ?v_4) ?v_39)) (or (or ?v_130 ?v_68) ?v_18)) (or (or ?v_35 ?v_138) P8)) (or (or ?v_6 ?v_136) ?v_110)) (or (or ?v_49 P1) ?v_58)) (or (or ?v_36 ?v_149) ?v_65)) (or (or ?v_58 ?v_127) ?v_27)) (or (or P16 ?v_87) P17)) (or (or ?v_147 ?v_30) ?v_46)) (or (or ?v_90 ?v_23) ?v_118)) (or (or ?v_137 P13) ?v_149)) (or (or ?v_98 ?v_123) ?v_95)) (or (or P20 ?v_10) ?v_14)) (or (or P23 ?v_135) ?v_109)) (or (or ?v_48 ?v_113) ?v_81)) (or (or ?v_59 ?v_145) ?v_41)) (or (or ?v_39 ?v_22) P13)) (or (or ?v_32 ?v_92) ?v_143)) (or (or ?v_31 ?v_77) ?v_150)) (or (or P11 P21) ?v_110)) (or (or ?v_128 ?v_27) P6)) (or (or ?v_46 ?v_74) ?v_137)) (or (or ?v_89 ?v_104) ?v_5)) (or (or P28 P19) ?v_38)) (or (or P23 ?v_54) ?v_50)) (or (or P19 ?v_46) ?v_136)) (or (or ?v_94 ?v_76) ?v_95)) (or (or P19 ?v_32) P16)) (or (or ?v_132 ?v_33) ?v_96)) (or (or ?v_57 ?v_17) ?v_59)) (or (or ?v_142 P7) ?v_133)) (or (or ?v_28 P15) ?v_9)) (or (or ?v_128 P21) P4)) (or (or ?v_126 ?v_76) P18)) (or (or ?v_141 ?v_142) ?v_33)) (or (or ?v_4 ?v_140) ?v_79)) (or (or ?v_78 ?v_81) ?v_32)) (or ?v_152 ?v_22)) (or (or ?v_60 ?v_132) ?v_77)) (or (or P11 ?v_79) ?v_1)) (or (or P28 ?v_100) P24)) (or (or ?v_84 ?v_41) ?v_74)) (or (or ?v_89 P11) ?v_22)) (or (or ?v_97 P15) ?v_18)) (or (or ?v_55 ?v_115) ?v_117)) (or (or ?v_13 ?v_94) ?v_38)) (or (or ?v_62 ?v_57) ?v_38)) (or (or ?v_125 ?v_105) ?v_124)) (or (or P23 P15) ?v_141)) (or (or P16 ?v_114) ?v_143)) (or (or ?v_57 P13) ?v_21)) (or (or ?v_104 ?v_122) ?v_63)) (or (or ?v_129 ?v_67) P22)) (or (or ?v_74 ?v_124) ?v_57)) (or (or ?v_8 ?v_79) ?v_101)) (or (or P23 ?v_61) ?v_60)) (or (or ?v_79 ?v_5) ?v_94)) (or ?v_152 ?v_64)) (or (or ?v_60 P6) ?v_32)) (or (or P19 ?v_35) ?v_87)) (or (or P5 ?v_28) ?v_120)) (or (or ?v_7 ?v_50) ?v_71)) (or (or ?v_13 ?v_46) ?v_131)) (or (or ?v_104 ?v_46) ?v_41)) (or (or ?v_125 ?v_124) ?v_111)) (or (or ?v_123 ?v_60) ?v_151)) (or (or P20 ?v_60) ?v_131)) (or ?v_153 P3)) (or (or ?v_48 ?v_134) ?v_62)) (or (or P25 ?v_85) ?v_125)) (or (or ?v_77 ?v_31) ?v_44)) (or (or ?v_5 ?v_12) ?v_125)) (or ?v_154 ?v_77)) (or (or P27 ?v_143) ?v_95)) (or (or ?v_130 ?v_8) P3)) (or (or P21 ?v_5) ?v_86)) (or (or P27 ?v_14) P4)) (or (or ?v_23 ?v_94) ?v_1)) (or (or ?v_4 ?v_1) ?v_50)) (or (or ?v_144 ?v_93) ?v_113)) (or (or ?v_81 ?v_40) P3)) (or (or ?v_80 ?v_23) ?v_20)) (or (or ?v_33 ?v_155) ?v_78)) (or (or ?v_111 ?v_93) ?v_33)) (or (or ?v_37 ?v_100) ?v_64)) (or (or ?v_148 ?v_65) ?v_112)) (or (or ?v_48 ?v_15) ?v_27)) (or (or ?v_130 ?v_39) ?v_42)) (or (or ?v_51 ?v_36) ?v_88)) (or ?v_156 ?v_36)) (or (or ?v_8 ?v_125) ?v_79)) (or (or ?v_72 ?v_74) ?v_61)) (or (or ?v_102 ?v_8) ?v_76)) (or (or ?v_42 ?v_73) ?v_135)) (or (or ?v_4 ?v_18) ?v_24)) (or (or ?v_90 ?v_36) ?v_134)) (or (or ?v_16 ?v_63) P19)) (or (or ?v_118 ?v_98) ?v_99)) (or (or ?v_12 ?v_123) ?v_61)) (or (or P13 P26) P4)) (or (or ?v_127 ?v_43) ?v_50)) (or (or ?v_3 ?v_40) ?v_103)) (or ?v_157 ?v_123)) (or (or ?v_69 ?v_82) ?v_6)) (or (or ?v_6 ?v_77) ?v_56)) (or (or ?v_47 ?v_107) ?v_141)) (or (or ?v_31 ?v_28) ?v_70)) (or (or P3 ?v_64) ?v_155)) (or (or ?v_138 ?v_31) P10)) (or (or ?v_42 P5) ?v_99)) (or (or ?v_141 ?v_81) ?v_133)) (or (or ?v_144 ?v_14) ?v_105)) (or (or ?v_116 ?v_80) P13)) (or (or ?v_112 ?v_95) ?v_87)) (or (or ?v_141 ?v_100) P24)) (or (or ?v_94 ?v_54) ?v_77)) (or (or ?v_19 ?v_71) P5)) (or (or P20 P23) ?v_39)) (or (or ?v_18 ?v_57) ?v_85)) (or (or P19 ?v_30) ?v_95)) (or (or ?v_151 ?v_71) ?v_36)) (or (or ?v_23 ?v_31) ?v_21)) (or (or P20 ?v_100) ?v_98)) (or (or ?v_6 ?v_109) P22)) (or (or ?v_111 ?v_52) ?v_123)) (or (or ?v_148 ?v_93) P11)) (or (or P1 P25) ?v_12)) (or (or ?v_65 ?v_74) ?v_23)) (or (or ?v_5 ?v_110) ?v_20)) (or (or ?v_85 ?v_145) P22)) (or (or ?v_151 ?v_88) ?v_96)) (or (or ?v_69 ?v_74) ?v_14)) (or (or ?v_149 P22) ?v_146)) (or (or P25 ?v_115) ?v_90)) (or (or ?v_81 ?v_28) ?v_27)) (or (or ?v_150 P27) ?v_109)) (or (or ?v_151 ?v_83) ?v_120)) (or (or ?v_150 ?v_57) ?v_59)) (or (or ?v_87 ?v_150) ?v_134)) (or (or P20 P16) ?v_28)) (or (or ?v_105 ?v_141) ?v_31)) (or (or ?v_56 ?v_40) ?v_91)) (or (or ?v_15 P24) ?v_144)) (or (or ?v_140 ?v_87) ?v_58)) (or (or P19 ?v_91) ?v_145)) (or (or ?v_10 ?v_106) ?v_146)) (or (or P26 ?v_148) ?v_76)) (or (or ?v_19 ?v_108) ?v_36)) (or (or ?v_150 ?v_61) ?v_131)) (or (or ?v_49 ?v_7) ?v_34)) (or (or P6 ?v_72) ?v_87)))))))))))))))))))))))))
(check-sat)
(exit)
